100 56530

 341 828
72 765
410 574
312 957
678 201
606 110
365 854
218 440
989 847
455 894
689 63
141 884
486 449
28 511
506 627
965 927
385 20
39 477
31 688
388 723
161 693
24 135
757 300
459 359
290 805
901 279
117 211
956 958
314 9
889 998
603 677
827 829
985 295
289 15
962 738
390 835
386 741
341 143
542 754
155 769
554 659
542 767
762 846
834 614
441 89
303 488
260 78
195 408
58 408
343 67
271 349
967 111
558 809
348 948
581 73
140 956
445 523
627 300
489 77
402 501
994 795
881 708
624 51
570 73
621 403
202 296
396 233
40 282
476 804
544 930
228 406
965 907
910 322
723 477
534 227
870 641
131 979
791 604
125 358
795 648
276 123
878 889
945 504
149 450
463 586
981 625
484 72
864 683
589 242
376 714
286 823
204 804
762 553
387 521
512 143
493 776
578 272
866 497
981 285
408 134
